 &inputpp
    prefix  = 'x'
    outdir = './'
    filplot = 'tmp_dn.dat'
    plot_num= 7
    kpoint=2
    kband=120
 /

 &plot
    nfile = 1
    filepp(1) = 'tmp_dn.dat'
    weight(1) = 1.0
    iflag = 3
    output_format = 6
    fileout = 'x-KS_120b.cube'
 /

